<instance format="XCSP3" type="CSP">
  <variables>
    <array id="x" note="x is the first Latin square" size="[12][12]"> 0..11 </array>
    <array id="y" note="y is the second Latin square" size="[12][12]"> 0..11 </array>
    <array id="z" note="z is the matrix used to control orthogonality" size="[144]"> 0..143 </array>
  </variables>
  <constraints>
    <group note="ensuring that x is a Latin square">
      <allDifferent> %... </allDifferent>
      <args> x[0][] </args>
      <args> x[1][] </args>
      <args> x[2][] </args>
      <args> x[3][] </args>
      <args> x[4][] </args>
      <args> x[5][] </args>
      <args> x[6][] </args>
      <args> x[7][] </args>
      <args> x[8][] </args>
      <args> x[9][] </args>
      <args> x[10][] </args>
      <args> x[11][] </args>
      <args> x[][0] </args>
      <args> x[][1] </args>
      <args> x[][2] </args>
      <args> x[][3] </args>
      <args> x[][4] </args>
      <args> x[][5] </args>
      <args> x[][6] </args>
      <args> x[][7] </args>
      <args> x[][8] </args>
      <args> x[][9] </args>
      <args> x[][10] </args>
      <args> x[][11] </args>
    </group>
    <group note="ensuring that y is a Latin square">
      <allDifferent> %... </allDifferent>
      <args> y[0][] </args>
      <args> y[1][] </args>
      <args> y[2][] </args>
      <args> y[3][] </args>
      <args> y[4][] </args>
      <args> y[5][] </args>
      <args> y[6][] </args>
      <args> y[7][] </args>
      <args> y[8][] </args>
      <args> y[9][] </args>
      <args> y[10][] </args>
      <args> y[11][] </args>
      <args> y[][0] </args>
      <args> y[][1] </args>
      <args> y[][2] </args>
      <args> y[][3] </args>
      <args> y[][4] </args>
      <args> y[][5] </args>
      <args> y[][6] </args>
      <args> y[][7] </args>
      <args> y[][8] </args>
      <args> y[][9] </args>
      <args> y[][10] </args>
      <args> y[][11] </args>
    </group>
    <group class="diagonals" note="ensuring that values on diagonals are different">
      <allDifferent> %... </allDifferent>
      <args> x[0][0] x[1][1] x[2][2] x[3][3] x[4][4] x[5][5] x[6][6] x[7][7] x[8][8] x[9][9] x[10][10] x[11][11] </args>
      <args> x[0][11] x[1][10] x[2][9] x[3][8] x[4][7] x[5][6] x[6][5] x[7][4] x[8][3] x[9][2] x[10][1] x[11][0] </args>
      <args> y[0][0] y[1][1] y[2][2] y[3][3] y[4][4] y[5][5] y[6][6] y[7][7] y[8][8] y[9][9] y[10][10] y[11][11] </args>
      <args> y[0][11] y[1][10] y[2][9] y[3][8] y[4][7] y[5][6] y[6][5] y[7][4] y[8][3] y[9][2] y[10][1] y[11][0] </args>
    </group>
    <allDifferent note="ensuring orthogonality of x and y through z"> z[] </allDifferent>
    <group note="computing z from x and y">
      <extension>
        <list> %0 %1 %2 </list>
        <supports> (0,0,0)(0,1,1)(0,2,2)(0,3,3)(0,4,4)(0,5,5)(0,6,6)(0,7,7)(0,8,8)(0,9,9)(0,10,10)(0,11,11)(1,0,12)(1,1,13)(1,2,14)(1,3,15)(1,4,16)(1,5,17)(1,6,18)(1,7,19)(1,8,20)(1,9,21)(1,10,22)(1,11,23)(2,0,24)(2,1,25)(2,2,26)(2,3,27)(2,4,28)(2,5,29)(2,6,30)(2,7,31)(2,8,32)(2,9,33)(2,10,34)(2,11,35)(3,0,36)(3,1,37)(3,2,38)(3,3,39)(3,4,40)(3,5,41)(3,6,42)(3,7,43)(3,8,44)(3,9,45)(3,10,46)(3,11,47)(4,0,48)(4,1,49)(4,2,50)(4,3,51)(4,4,52)(4,5,53)(4,6,54)(4,7,55)(4,8,56)(4,9,57)(4,10,58)(4,11,59)(5,0,60)(5,1,61)(5,2,62)(5,3,63)(5,4,64)(5,5,65)(5,6,66)(5,7,67)(5,8,68)(5,9,69)(5,10,70)(5,11,71)(6,0,72)(6,1,73)(6,2,74)(6,3,75)(6,4,76)(6,5,77)(6,6,78)(6,7,79)(6,8,80)(6,9,81)(6,10,82)(6,11,83)(7,0,84)(7,1,85)(7,2,86)(7,3,87)(7,4,88)(7,5,89)(7,6,90)(7,7,91)(7,8,92)(7,9,93)(7,10,94)(7,11,95)(8,0,96)(8,1,97)(8,2,98)(8,3,99)(8,4,100)(8,5,101)(8,6,102)(8,7,103)(8,8,104)(8,9,105)(8,10,106)(8,11,107)(9,0,108)(9,1,109)(9,2,110)(9,3,111)(9,4,112)(9,5,113)(9,6,114)(9,7,115)(9,8,116)(9,9,117)(9,10,118)(9,11,119)(10,0,120)(10,1,121)(10,2,122)(10,3,123)(10,4,124)(10,5,125)(10,6,126)(10,7,127)(10,8,128)(10,9,129)(10,10,130)(10,11,131)(11,0,132)(11,1,133)(11,2,134)(11,3,135)(11,4,136)(11,5,137)(11,6,138)(11,7,139)(11,8,140)(11,9,141)(11,10,142)(11,11,143) </supports>
      </extension>
      <args> x[0][0] y[0][0] z[0] </args>
      <args> x[0][1] y[0][1] z[1] </args>
      <args> x[0][2] y[0][2] z[2] </args>
      <args> x[0][3] y[0][3] z[3] </args>
      <args> x[0][4] y[0][4] z[4] </args>
      <args> x[0][5] y[0][5] z[5] </args>
      <args> x[0][6] y[0][6] z[6] </args>
      <args> x[0][7] y[0][7] z[7] </args>
      <args> x[0][8] y[0][8] z[8] </args>
      <args> x[0][9] y[0][9] z[9] </args>
      <args> x[0][10] y[0][10] z[10] </args>
      <args> x[0][11] y[0][11] z[11] </args>
      <args> x[1][0] y[1][0] z[12] </args>
      <args> x[1][1] y[1][1] z[13] </args>
      <args> x[1][2] y[1][2] z[14] </args>
      <args> x[1][3] y[1][3] z[15] </args>
      <args> x[1][4] y[1][4] z[16] </args>
      <args> x[1][5] y[1][5] z[17] </args>
      <args> x[1][6] y[1][6] z[18] </args>
      <args> x[1][7] y[1][7] z[19] </args>
      <args> x[1][8] y[1][8] z[20] </args>
      <args> x[1][9] y[1][9] z[21] </args>
      <args> x[1][10] y[1][10] z[22] </args>
      <args> x[1][11] y[1][11] z[23] </args>
      <args> x[2][0] y[2][0] z[24] </args>
      <args> x[2][1] y[2][1] z[25] </args>
      <args> x[2][2] y[2][2] z[26] </args>
      <args> x[2][3] y[2][3] z[27] </args>
      <args> x[2][4] y[2][4] z[28] </args>
      <args> x[2][5] y[2][5] z[29] </args>
      <args> x[2][6] y[2][6] z[30] </args>
      <args> x[2][7] y[2][7] z[31] </args>
      <args> x[2][8] y[2][8] z[32] </args>
      <args> x[2][9] y[2][9] z[33] </args>
      <args> x[2][10] y[2][10] z[34] </args>
      <args> x[2][11] y[2][11] z[35] </args>
      <args> x[3][0] y[3][0] z[36] </args>
      <args> x[3][1] y[3][1] z[37] </args>
      <args> x[3][2] y[3][2] z[38] </args>
      <args> x[3][3] y[3][3] z[39] </args>
      <args> x[3][4] y[3][4] z[40] </args>
      <args> x[3][5] y[3][5] z[41] </args>
      <args> x[3][6] y[3][6] z[42] </args>
      <args> x[3][7] y[3][7] z[43] </args>
      <args> x[3][8] y[3][8] z[44] </args>
      <args> x[3][9] y[3][9] z[45] </args>
      <args> x[3][10] y[3][10] z[46] </args>
      <args> x[3][11] y[3][11] z[47] </args>
      <args> x[4][0] y[4][0] z[48] </args>
      <args> x[4][1] y[4][1] z[49] </args>
      <args> x[4][2] y[4][2] z[50] </args>
      <args> x[4][3] y[4][3] z[51] </args>
      <args> x[4][4] y[4][4] z[52] </args>
      <args> x[4][5] y[4][5] z[53] </args>
      <args> x[4][6] y[4][6] z[54] </args>
      <args> x[4][7] y[4][7] z[55] </args>
      <args> x[4][8] y[4][8] z[56] </args>
      <args> x[4][9] y[4][9] z[57] </args>
      <args> x[4][10] y[4][10] z[58] </args>
      <args> x[4][11] y[4][11] z[59] </args>
      <args> x[5][0] y[5][0] z[60] </args>
      <args> x[5][1] y[5][1] z[61] </args>
      <args> x[5][2] y[5][2] z[62] </args>
      <args> x[5][3] y[5][3] z[63] </args>
      <args> x[5][4] y[5][4] z[64] </args>
      <args> x[5][5] y[5][5] z[65] </args>
      <args> x[5][6] y[5][6] z[66] </args>
      <args> x[5][7] y[5][7] z[67] </args>
      <args> x[5][8] y[5][8] z[68] </args>
      <args> x[5][9] y[5][9] z[69] </args>
      <args> x[5][10] y[5][10] z[70] </args>
      <args> x[5][11] y[5][11] z[71] </args>
      <args> x[6][0] y[6][0] z[72] </args>
      <args> x[6][1] y[6][1] z[73] </args>
      <args> x[6][2] y[6][2] z[74] </args>
      <args> x[6][3] y[6][3] z[75] </args>
      <args> x[6][4] y[6][4] z[76] </args>
      <args> x[6][5] y[6][5] z[77] </args>
      <args> x[6][6] y[6][6] z[78] </args>
      <args> x[6][7] y[6][7] z[79] </args>
      <args> x[6][8] y[6][8] z[80] </args>
      <args> x[6][9] y[6][9] z[81] </args>
      <args> x[6][10] y[6][10] z[82] </args>
      <args> x[6][11] y[6][11] z[83] </args>
      <args> x[7][0] y[7][0] z[84] </args>
      <args> x[7][1] y[7][1] z[85] </args>
      <args> x[7][2] y[7][2] z[86] </args>
      <args> x[7][3] y[7][3] z[87] </args>
      <args> x[7][4] y[7][4] z[88] </args>
      <args> x[7][5] y[7][5] z[89] </args>
      <args> x[7][6] y[7][6] z[90] </args>
      <args> x[7][7] y[7][7] z[91] </args>
      <args> x[7][8] y[7][8] z[92] </args>
      <args> x[7][9] y[7][9] z[93] </args>
      <args> x[7][10] y[7][10] z[94] </args>
      <args> x[7][11] y[7][11] z[95] </args>
      <args> x[8][0] y[8][0] z[96] </args>
      <args> x[8][1] y[8][1] z[97] </args>
      <args> x[8][2] y[8][2] z[98] </args>
      <args> x[8][3] y[8][3] z[99] </args>
      <args> x[8][4] y[8][4] z[100] </args>
      <args> x[8][5] y[8][5] z[101] </args>
      <args> x[8][6] y[8][6] z[102] </args>
      <args> x[8][7] y[8][7] z[103] </args>
      <args> x[8][8] y[8][8] z[104] </args>
      <args> x[8][9] y[8][9] z[105] </args>
      <args> x[8][10] y[8][10] z[106] </args>
      <args> x[8][11] y[8][11] z[107] </args>
      <args> x[9][0] y[9][0] z[108] </args>
      <args> x[9][1] y[9][1] z[109] </args>
      <args> x[9][2] y[9][2] z[110] </args>
      <args> x[9][3] y[9][3] z[111] </args>
      <args> x[9][4] y[9][4] z[112] </args>
      <args> x[9][5] y[9][5] z[113] </args>
      <args> x[9][6] y[9][6] z[114] </args>
      <args> x[9][7] y[9][7] z[115] </args>
      <args> x[9][8] y[9][8] z[116] </args>
      <args> x[9][9] y[9][9] z[117] </args>
      <args> x[9][10] y[9][10] z[118] </args>
      <args> x[9][11] y[9][11] z[119] </args>
      <args> x[10][0] y[10][0] z[120] </args>
      <args> x[10][1] y[10][1] z[121] </args>
      <args> x[10][2] y[10][2] z[122] </args>
      <args> x[10][3] y[10][3] z[123] </args>
      <args> x[10][4] y[10][4] z[124] </args>
      <args> x[10][5] y[10][5] z[125] </args>
      <args> x[10][6] y[10][6] z[126] </args>
      <args> x[10][7] y[10][7] z[127] </args>
      <args> x[10][8] y[10][8] z[128] </args>
      <args> x[10][9] y[10][9] z[129] </args>
      <args> x[10][10] y[10][10] z[130] </args>
      <args> x[10][11] y[10][11] z[131] </args>
      <args> x[11][0] y[11][0] z[132] </args>
      <args> x[11][1] y[11][1] z[133] </args>
      <args> x[11][2] y[11][2] z[134] </args>
      <args> x[11][3] y[11][3] z[135] </args>
      <args> x[11][4] y[11][4] z[136] </args>
      <args> x[11][5] y[11][5] z[137] </args>
      <args> x[11][6] y[11][6] z[138] </args>
      <args> x[11][7] y[11][7] z[139] </args>
      <args> x[11][8] y[11][8] z[140] </args>
      <args> x[11][9] y[11][9] z[141] </args>
      <args> x[11][10] y[11][10] z[142] </args>
      <args> x[11][11] y[11][11] z[143] </args>
    </group>
    <group class="symmetry-breaking">
      <intension> eq(%0,%1) </intension>
      <args> x[0][0] 0 </args>
      <args> x[0][1] 1 </args>
      <args> x[0][2] 2 </args>
      <args> x[0][3] 3 </args>
      <args> x[0][4] 4 </args>
      <args> x[0][5] 5 </args>
      <args> x[0][6] 6 </args>
      <args> x[0][7] 7 </args>
      <args> x[0][8] 8 </args>
      <args> x[0][9] 9 </args>
      <args> x[0][10] 10 </args>
      <args> x[0][11] 11 </args>
      <args> y[0][0] 0 </args>
      <args> y[0][1] 1 </args>
      <args> y[0][2] 2 </args>
      <args> y[0][3] 3 </args>
      <args> y[0][4] 4 </args>
      <args> y[0][5] 5 </args>
      <args> y[0][6] 6 </args>
      <args> y[0][7] 7 </args>
      <args> y[0][8] 8 </args>
      <args> y[0][9] 9 </args>
      <args> y[0][10] 10 </args>
      <args> y[0][11] 11 </args>
    </group>
  </constraints>
</instance>
